LAMMPS (29 Oct 2020)
# AA model for water

units           real
atom_style      full
read_data       data.singleTIP4P05
Reading data file ...
  orthogonal box = (0.0000000 0.0000000 0.0000000) to (3.5000000 3.5000000 3.5000000)
  1 by 1 by 1 MPI processor grid
  reading atoms ...
  3 atoms
  scanning bonds ...
  2 = max bonds/atom
  scanning angles ...
  1 = max angles/atom
  reading bonds ...
  2 bonds
  reading angles ...
  1 angles
Finding 1-2 1-3 1-4 neighbors ...
  special bond factors lj:    0.0      0.0      0.0     
  special bond factors coul:  0.0      0.0      0.0     
     2 = max # of 1-2 neighbors
     1 = max # of 1-3 neighbors
     1 = max # of 1-4 neighbors
     2 = max # of special neighbors
  special bonds CPU = 0.000 seconds
  read_data CPU = 0.002 seconds

mass           1 1.00794 # H
mass           2 15.9994 # O

pair_style lj/cut/tip4p/long 2 1 1 1 0.1546 12.0

pair_coeff 1 1 0.0 0.0   # Hw Hw
pair_coeff 1 2 0.0 0.0	 # Hw Ow
pair_coeff 2 2 0.18520 3.1589  # Ow-Ow

bond_style harmonic
bond_coeff 1 0.0 0.9572

angle_style harmonic
angle_coeff 1 0.0 104.52

pair_modify tail yes
#kspace_style pppm 1.0e-5
kspace_style	pppm/tip4p 1.0e-5
kspace_modify   order 5

replicate 8 8 8
Replicating atoms ...
  orthogonal box = (0.0000000 0.0000000 0.0000000) to (28.000000 28.000000 28.000000)
  1 by 1 by 1 MPI processor grid
  1536 atoms
  1024 bonds
  512 angles
Finding 1-2 1-3 1-4 neighbors ...
  special bond factors lj:    0.0      0.0      0.0     
  special bond factors coul:  0.0      0.0      0.0     
     2 = max # of 1-2 neighbors
     1 = max # of 1-3 neighbors
     1 = max # of 1-4 neighbors
     2 = max # of special neighbors
  special bonds CPU = 0.000 seconds
  replicate CPU = 0.003 seconds

variable        Text equal 270

group           oxygen type 2
512 atoms in group oxygen
group           hydrogen type 1
1024 atoms in group hydrogen

velocity        all create ${Text} 1234
velocity        all create 270 1234

neighbor        2.0 bin
neigh_modify    every 1 delay 0 check yes

timestep        1.0

variable   nH equal count(hydrogen)
variable   nO equal count(oxygen)
variable   mH2O equal (2*1.00794+15.9994) # H2O
variable   denwat equal (v_nO*v_mH2O*10)/(vol*6.023)
#fix loadBalance all balance 20 z 5 1.05
#fix   20 all balance 10000 0.9 shift xyz 20 1.1 out tmp.balance

compute h2oRDF all rdf 100 1 1 1 2 2 2 cutoff 10.0
fix    avgrdf all ave/time 100 100 10000 c_h2oRDF[*] file tmprdf.dat mode vector

compute onlyOw oxygen chunk/atom molecule
compute h2oMSD oxygen msd #msd/chunk #onlyOw #com yes average yes
fix     noavgmsd all ave/time 1000 1 1000 c_h2oMSD[*] file tmpmsd.dat #mode vector

fix         constrain all shake 1.0e-4 100 0 b 1 a 1
       0 = # of size 2 clusters
       0 = # of size 3 clusters
       0 = # of size 4 clusters
     512 = # of frozen angles
  find clusters CPU = 0.000 seconds
fix         integrate all npt temp ${Text} ${Text} 10.0 iso 1.0 1.0 110
fix         integrate all npt temp 270 ${Text} 10.0 iso 1.0 1.0 110
fix         integrate all npt temp 270 270 10.0 iso 1.0 1.0 110

#variable        zPress equal c_thermo_press[3]
# Evaluate and average surface tension in mN/m:
#variable        st equal 0.5*lz*(v_zPress-0.5*(v_xPress+v_yPress))*${convFac}
#fix             st all ave/time ${Ne} ${Nr} ${Nf} v_st
#variable        xyArea equal lx*ly

thermo_style    custom step temp press vol density v_denwat
thermo_modify   flush yes
thermo          5000


dump           1 all custom 1000 dump.lammpstrj id type xs ys zs
dump_modify    1 sort id
restart        500000 x.rest
run 2000000
PPPM initialization ...
  extracting TIP4P info from pair style
  using 12-bit tables for long-range coulomb (../kspace.cpp:328)
  G vector (1/distance) = 0.26425212
  grid = 24 24 24
  stencil order = 5
  estimated absolute RMS force accuracy = 0.0019073645
  estimated relative force accuracy = 5.7439716e-06
  using double precision KISS FFT
  3d grid and FFT values/proc = 29791 13824
WARNING: Compute rdf cutoff less than neighbor cutoff - forcing a needless neighbor list build (../compute_rdf.cpp:178)
Neighbor list info ...
  update every 1 steps, delay 0 steps, check yes
  max neighbors/atom: 2000, page size: 100000
  master list distance cutoff = 14.3092
  ghost atom cutoff = 14.3092
  binsize = 7.1546, bins = 4 4 4
  2 neighbor lists, perpetual/occasional/extra = 1 1 0
  (1) pair lj/cut/tip4p/long, perpetual
      attributes: half, newton on
      pair build: half/bin/newton
      stencil: half/bin/3d/newton
      bin: standard
  (2) compute rdf, occasional
      attributes: half, newton on, cut 12.0
      pair build: half/bin/newton
      stencil: half/bin/3d/newton
      bin: standard
Per MPI rank memory allocation (min/avg/max) = 16.06 | 16.06 | 16.06 Mbytes
Step Temp Press Volume Density v_denwat 
       0    405.13196    3846.3302        21952   0.69772766   0.69762819 
    5000    285.29793    858.81655    14826.871    1.0330243     1.032877 
   10000     258.4796     98.79063    15135.636    1.0119507    1.0118064 
   15000    272.03447    693.49676    15404.602   0.99428195    0.9941402 
   20000    269.09559     114.8795    15261.569    1.0036004    1.0034573 
   25000    273.43487    737.53239    15153.043    1.0107882    1.0106441 
   30000    274.67494   -190.22083    15365.163   0.99683407   0.99669195 
   35000    282.62423   -582.79558    15518.779    0.9869667   0.98682598 
   40000    259.45748    9.6640414    15352.542   0.99765355   0.99751132 
   45000    272.54746   -244.48763      15394.2   0.99495378   0.99481193 
   50000    279.52832   -225.10717    15431.204   0.99256789   0.99242638 
   55000    270.52269    465.63797    14941.464    1.0251015    1.0249554 
   60000    264.77732    75.471204    15300.631    1.0010383    1.0008956 
   65000    266.10525   -587.15019     15486.17   0.98904495   0.98890394 
   70000    280.79895   -346.68453     15378.96   0.99593979    0.9957978 
   75000    279.11863   -607.65243    15395.441   0.99487357   0.99473173 
   80000      276.201   -256.78187    15511.308   0.98744207   0.98730129 
   85000    272.09526   -727.30548    15245.254    1.0046745    1.0045312 
   90000    274.64967   -395.53325     15688.02   0.97631936   0.97618016 
   95000    261.05508    148.69326    15292.258    1.0015864    1.0014436 
  100000    276.26954   -476.19997    15552.668   0.98481607   0.98467566 
  105000    278.56811   -48.552308    15406.635   0.99415075   0.99400901 
  110000    273.29689    -603.0915    15366.359   0.99675648   0.99661437 
  115000    268.58798    35.803531    15271.351    1.0029576    1.0028146 
  120000    270.27694   -258.47835    15474.361    0.9897997   0.98965858 
  125000    261.38064   -256.93897    15345.894    0.9980857    0.9979434 
  130000    269.93641    406.68305     14984.32    1.0221697    1.0220239 
  135000    294.75965    -24.78403    15201.612    1.0075588    1.0074151 
  140000    268.20194   -255.71259    15411.468   0.99383895   0.99369726 
  145000    275.91558    -135.9788    15411.149   0.99385958   0.99371788 
  150000    270.26174     792.0893     15421.44   0.99319633   0.99305472 
  155000    267.19639    1149.7575    15506.871   0.98772461   0.98758379 
  160000    262.55552    1021.7342    15031.348    1.0189717    1.0188264 
  165000    273.52151    1209.0621    15273.198    1.0028363    1.0026933 
  170000    264.00174   -151.69992    15447.517   0.99151972   0.99137836 
  175000    263.27316    -448.3783    15613.216   0.98099696    0.9808571 
  180000    273.82599   -170.45632    15442.018   0.99187278   0.99173137 
  185000    276.09099   -328.35821    15750.905   0.97242145   0.97228281 
  190000    272.48591    410.94737    15585.249   0.98275733   0.98261721 
  195000    272.57636   -1352.2759    15556.325   0.98458461   0.98444423 
  200000    269.62682    1577.5374    15033.127    1.0188511    1.0187058 
  205000    262.72667   -956.34653    15637.475   0.97947509   0.97933545 
  210000    269.00588   -354.87063    15106.424    1.0139076     1.013763 
  215000    268.28167    281.36748     14952.35    1.0243552    1.0242091 
  220000    266.06897    334.35515    15025.513    1.0193674     1.019222 
  225000    268.40874    -36.37163     15278.63    1.0024798    1.0023369 
  230000    278.57923    594.84078    15610.236   0.98118427   0.98104438 
  235000    275.65033    342.25365    15279.439    1.0024267    1.0022838 
  240000    275.98018   -45.500538    15429.939   0.99264927   0.99250775 
  245000    272.17411   -1021.1225    15502.412   0.98800869   0.98786783 
  250000    271.09173   -109.06526    15237.887    1.0051602    1.0050169 
  255000    271.78838    316.38947    15088.603    1.0151051    1.0149603 
  260000    275.77439    179.91714    15225.479    1.0059793    1.0058359 
  265000    275.57677   -456.34851    15057.823    1.0171801    1.0170351 
  270000    256.57087    614.56042    15240.538    1.0049853    1.0048421 
  275000    267.86266    -131.0365    15004.127    1.0208203    1.0206748 
  280000    267.80539    871.76379    15100.487    1.0143062    1.0141616 
  285000    276.83931    164.73315    15126.951    1.0125317    1.0123874 
  290000    270.67423      714.454     15326.57   0.99934414   0.99920166 
  295000    271.25859   -174.95584    15267.753     1.003194     1.003051 
  300000     265.6575   -394.28932    15469.012   0.99014193   0.99000076 
  305000    275.57697   -99.383099    15015.342    1.0200579    1.0199124 
  310000    271.52534    842.84099    14951.922    1.0243845    1.0242385 
  315000    273.94781   -465.85839    15350.466   0.99778848   0.99764622 
  320000    272.68353   -85.432723    15442.913   0.99181535   0.99167394 
  325000    277.24054   -115.27657    15351.393   0.99772821   0.99758596 
  330000    266.08346    850.98464      15057.2    1.0172222    1.0170771 
  335000    262.83349    888.47231    15168.239    1.0097756    1.0096316 
  340000    270.82902   -234.56602    15317.068   0.99996406    0.9998215 
  345000    280.61752    226.02558    15467.163   0.99026031   0.99011912 
  350000    270.19844   -46.939306    15294.501    1.0014395    1.0012967 
  355000    266.07097   -682.78589    15446.274   0.99159949   0.99145812 
  360000    268.41084    31.753634    15158.657    1.0104139    1.0102698 
  365000      273.772   -174.39873     15234.71    1.0053698    1.0052265 
  370000    270.33514    261.51415    15146.284    1.0112393    1.0110951 
  375000     272.2386   -217.60268    15366.751   0.99673102   0.99658891 
  380000    295.50283    561.51929     15258.11     1.003828    1.0036848 
  385000    263.04081    702.90167    15033.724    1.0188106    1.0186653 
  390000    267.71872    696.53208    15098.242    1.0144571    1.0143124 
  395000    277.02196    308.17831    15027.513    1.0192317    1.0190864 
  400000    268.97964    166.49874    15045.945    1.0179831     1.017838 
  405000    270.88259    404.52565    15052.206    1.0175597    1.0174146 
  410000    262.78828    -546.5582    15633.562   0.97972027   0.97958059 
  415000    262.87378   -472.71965    15317.654   0.99992581   0.99978325 
  420000    270.74138   -243.02029    15467.722   0.99022455   0.99008337 
  425000    268.91841    121.23856    15092.577    1.0148378    1.0146931 
  430000    266.17131   -636.11737    15292.377    1.0015786    1.0014358 
  435000    262.17478    289.14707    15451.726    0.9912496   0.99110828 
  440000    269.32193   -138.06093    15244.563    1.0047201    1.0045768 
  445000    266.46552    705.79652    15268.335    1.0031557    1.0030127 
  450000    257.64644    64.608179    15516.115   0.98713611   0.98699538 
  455000    281.27482    752.97871    15197.754    1.0078145    1.0076709 
  460000    275.79193    266.31873    15166.428    1.0098962    1.0097522 
  465000    277.40304    -402.1943    15344.623   0.99816839   0.99802608 
  470000    270.85456  -0.99675639    15346.786   0.99802771   0.99788542 
  475000    261.15949    438.10309     15282.64    1.0022167    1.0020738 
  480000    275.65386    350.67148    15327.137   0.99930713   0.99916466 
  485000    268.95005   -518.85229    15414.522   0.99364207    0.9935004 
  490000    274.11157   -55.215606    15356.634   0.99738766   0.99724546 
  495000    257.79575    274.54005      15169.2    1.0097116    1.0095677 
  500000     276.8621   -127.23564    15302.425     1.000921    1.0007783 
  505000    257.86375    12.107455    15231.538    1.0055792    1.0054358 
  510000    259.10751   -130.86987    15599.376   0.98186731   0.98172732 
  515000    267.52895    220.78572    15502.937   0.98797521   0.98783435 
  520000    270.26576   -33.117552    15556.114   0.98459794   0.98445757 
  525000    271.80147    263.40202    15492.089   0.98866703   0.98852608 
  530000    266.80494   -337.32176    15280.578     1.002352    1.0022091 
  535000    265.89375   -205.40631    15463.231   0.99051213   0.99037091 
  540000    269.21237   -183.42598    15605.953   0.98145353   0.98131361 
  545000    276.94782   -87.043993    15388.408   0.99532831   0.99518641 
  550000    254.98976   -477.40239    15514.571   0.98723436   0.98709361 
  555000    269.15552    216.80576    15227.158    1.0058684     1.005725 
  560000    277.73914    63.329398    15423.092   0.99308998    0.9929484 
  565000    285.40281    302.34193    15025.384    1.0193761    1.0192308 
  570000    275.03809    15.937263     15198.31    1.0077777     1.007634 
  575000    266.44157    1070.9937    15348.869   0.99789226   0.99774999 
  580000    263.13395    119.94585    15415.205   0.99359805   0.99345639 
  585000    266.16005    430.68127    15409.766   0.99394873   0.99380702 
  590000    273.14631   -828.66358    15295.349     1.001384    1.0012412 
  595000    260.87562   -1353.6273    15508.399   0.98762728   0.98748647 
  600000    278.33752    137.60024    15513.258    0.9873179   0.98717714 
  605000    272.09402    80.148731     15517.13   0.98707153    0.9869308 
  610000    272.70485    49.999268    15347.805   0.99796146   0.99781918 
  615000    279.25647     129.5206    15402.665   0.99440697   0.99426519 
  620000     270.1161   -256.01317    15376.142   0.99612226   0.99598024 
  625000    264.25338    93.738122    15226.788    1.0058929    1.0057495 
  630000    273.20294    991.34615    15072.709    1.0161755    1.0160306 
  635000    282.24388   -29.190093    15256.057     1.003963    1.0038199 
  640000    280.43422    -46.74358    15337.251   0.99864819   0.99850581 
  645000     260.4414   -468.99368    15229.806    1.0056936    1.0055502 
  650000    262.05366    190.08331    15147.382     1.011166    1.0110218 
  655000    284.00841   -458.86649    15211.214    1.0069228    1.0067792 
  660000    278.37931    119.88702    15292.524     1.001569    1.0014262 
  665000    283.93319    19.555495    15280.789    1.0023382    1.0021953 
  670000    273.63477   -375.23464    15292.286    1.0015845    1.0014417 
  675000    270.75308    322.68105    15014.126    1.0201404     1.019995 
  680000    261.44494    486.20504    15069.552    1.0163884    1.0162434 
  685000    270.25466   -649.95472    15301.859     1.000958    1.0008153 
  690000    274.41124   -890.31408    15362.087   0.99703363   0.99689148 
  695000    265.49804    787.31829    14955.049    1.0241704    1.0240243 
  700000    261.93633    125.35316     15290.83    1.0016799    1.0015371 
  705000    272.21555    179.50322    15261.017    1.0036368    1.0034937 
  710000    283.74583    735.69448    15307.657    1.0005789    1.0004362 
  715000    263.18129   -267.40633     15185.35    1.0086378     1.008494 
  720000    255.16592   -1058.0516    15269.049    1.0031088    1.0029658 
  725000    259.49687    484.89741    15319.423   0.99981038   0.99966783 
  730000    263.28183   -602.85152    15321.884   0.99964976   0.99950724 
  735000    262.91227   -808.50009    15432.731   0.99246966   0.99232817 
  740000     272.8811    193.70122    15362.056   0.99703569   0.99689354 
  745000    263.60745    679.68472      14985.6    1.0220824    1.0219366 
  750000    261.39072   -157.69524    15186.618    1.0085536    1.0084098 
  755000    268.11899    270.22589     15191.02    1.0082613    1.0081176 
  760000    264.31194   -224.54144    15248.184    1.0044814    1.0043382 
  765000    268.30411    330.11526    15212.277    1.0068524    1.0067089 
  770000    263.49025    30.768269    15209.772    1.0070182    1.0068747 
  775000    268.49534    87.338593    15549.317   0.98502831   0.98488787 
  780000    262.73071   -140.49363    15334.123    0.9988519   0.99870949 
  785000    269.78478   -667.59421    15385.759   0.99549967   0.99535774 
  790000    263.74639   -128.23574    15045.637    1.0180039    1.0178588 
  795000    279.38854   -690.65054    15426.255   0.99288633   0.99274477 
  800000    274.93706    371.47973    15043.569    1.0181439    1.0179987 
  805000    273.86649    572.48141    15204.176    1.0073889    1.0072452 
  810000    266.13458    25.593904    15575.281   0.98338626   0.98324606 
  815000     267.5613    703.12135    15327.986   0.99925178   0.99910932 
  820000    278.27253   -432.93587    15088.812     1.015091    1.0149463 
  825000     266.9041    336.68297    15143.855    1.0114015    1.0112573 
  830000    279.17251   -427.60952    15648.282   0.97879867   0.97865912 
  835000    274.03681    635.00851    15429.124   0.99270171   0.99256018 
  840000    270.63124    176.07846    15528.499    0.9863489   0.98620827 
  845000      268.425   -519.76563    15487.715   0.98894623   0.98880523 
  850000    265.19189    305.87906    15355.813   0.99744103   0.99729882 
  855000     270.5204     194.4258     15426.95   0.99284161   0.99270006 
  860000    267.74745   -543.04756    15402.675   0.99440635   0.99426457 
  865000    269.74637     79.75559    15286.504    1.0019634    1.0018206 
  870000       263.73   -76.184115    15314.486    1.0001326   0.99999004 
  875000    274.14558    239.83673    15175.049    1.0093225    1.0091786 
  880000    261.85826   -516.33503    15228.849    1.0057568    1.0056134 
  885000    262.35944    295.94047    15307.046    1.0006188    1.0004761 
  890000    280.23554    213.41408    15157.775    1.0104727    1.0103287 
  895000    258.97871   -988.83582    14974.772    1.0228214    1.0226756 
  900000    269.66599   -387.06463    15223.078     1.006138    1.0059946 
  905000    272.96473   -607.25592    15379.222   0.99592282   0.99578083 
  910000    264.35531    430.12481     15305.26    1.0007355    1.0005928 
  915000    277.88178    431.75725     15264.72    1.0033933    1.0032502 
  920000    257.64871    581.48162    15189.584    1.0083567    1.0082129 
  925000    261.60205    47.895659    15481.714   0.98932961   0.98918856 
  930000    264.38921    -393.5628    15546.999    0.9851752   0.98503475 
  935000    269.90364    569.38469    15429.665    0.9926669   0.99252538 
  940000    250.97273    511.52466     15560.79   0.98430207   0.98416173 
  945000    263.38447   -328.28512    15469.612   0.99010357   0.98996241 
  950000    259.19038   -36.058271    15401.892   0.99445692   0.99431514 
  955000     271.5197   -57.455686    15233.954    1.0054197    1.0052764 
  960000    270.37463   -551.41685    15170.766    1.0096074    1.0094634 
  965000    266.62543   -209.72008    15140.745    1.0116092     1.011465 
  970000    265.07918   -92.413523    15257.045    1.0038981    1.0037549 
  975000    264.97653    163.15522    15326.567   0.99934431   0.99920183 
  980000    283.04621     1791.265    14855.069    1.0310634    1.0309164 
  985000    257.39923    -20.05831    14961.235    1.0237469    1.0236009 
  990000    267.58165    -42.30915    15169.412    1.0096975    1.0095536 
  995000    278.79385    344.78774    15011.431    1.0203236    1.0201781 
 1000000    279.08403   -186.59807    15407.555    0.9940914   0.99394967 
 1005000    280.19424   -150.94627    15144.312     1.011371    1.0112268 
 1010000    275.21587   -550.62009    15484.638   0.98914274   0.98900172 
 1015000     261.1498    442.14641     15232.28    1.0055302    1.0053868 
 1020000    274.42138    476.88879    15375.517   0.99616275   0.99602073 
 1025000    275.57392   -886.40207    15451.793   0.99124535   0.99110403 
 1030000    276.12039    683.01757    15202.789    1.0074808    1.0073371 
 1035000    258.82883   -895.88033    15477.282   0.98961288   0.98947179 
 1040000    272.43038    171.08978    15441.919   0.99187917   0.99173776 
 1045000    271.15535   -244.77665    15386.221   0.99546975   0.99532782 
 1050000    268.85324    -91.93097     15241.89    1.0048962    1.0047529 
 1055000    265.95826    168.52773    15332.322   0.99896919   0.99882676 
 1060000    273.66963   -604.80482    15372.144   0.99638138   0.99623932 
 1065000    277.74189   -214.49949      15369.7    0.9965398   0.99639772 
 1070000    274.36538   -184.00132    15141.459    1.0115616    1.0114174 
 1075000    271.78644    200.24789    15377.163   0.99605614   0.99591413 
 1080000    269.91841   -513.07469    15348.118   0.99794106   0.99779879 
 1085000    268.16026    833.81241    15019.751    1.0197584     1.019613 
 1090000    271.03926    -637.9373    15466.916   0.99027611   0.99013493 
 1095000    257.67649   -528.77687    15289.747    1.0017509    1.0016081 
 1100000    281.14306    173.73707    15054.004    1.0174381    1.0172931 
 1105000    270.04528    -184.0283    15118.657    1.0130872    1.0129428 
 1110000    253.77657   -579.84727    15328.966   0.99918795   0.99904549 
 1115000    262.63537    97.199571    15364.515   0.99687606   0.99673394 
 1120000    270.93901    931.46049     14878.48     1.029441    1.0292943 
 1125000    274.61497   -165.33336    15331.764   0.99900561   0.99886318 
 1130000    266.92373   -25.578157    15265.246    1.0033587    1.0032157 
 1135000    264.80306    224.33552    14971.866    1.0230199    1.0228741 
 1140000    261.80328    500.80834    14992.031    1.0216439    1.0214983 
 1145000    262.09214   -189.45454      15247.1    1.0045528    1.0044096 
 1150000    275.74822   -197.28541    15203.872     1.007409    1.0072654 
 1155000    275.68641    471.91287    15113.783    1.0134139    1.0132694 
 1160000    268.85071   -176.69487    15305.688    1.0007076    1.0005649 
 1165000    269.05477   -79.077237    15205.381     1.007309    1.0071654 
 1170000    276.23074    12.075392    15214.184    1.0067262    1.0065827 
 1175000    265.25726   -262.74766    15348.382   0.99792393   0.99778166 
 1180000    282.06392    379.00357    15318.109   0.99989609   0.99975354 
 1185000    271.36803    76.774655    15386.306   0.99546429   0.99532236 
 1190000    260.91487    79.655246    15499.328    0.9882053   0.98806441 
 1195000    276.47218    -419.8423    15460.311   0.99069918   0.99055793 
 1200000    270.37519    241.53601    15350.778   0.99776816   0.99762591 
 1205000    268.59464   -120.51849    15555.446   0.98464024   0.98449986 
 1210000    265.05682    -120.7746    15620.807   0.98052023   0.98038043 
 1215000    261.71731    1239.7219    15081.111    1.0156094    1.0154646 
 1220000    271.47647    185.79849    15338.458   0.99856962   0.99842725 
 1225000     271.4534   -1002.0626    15617.992   0.98069699   0.98055717 
 1230000    266.06922     586.3415    14996.089    1.0213675    1.0212219 
 1235000     272.6006    648.99842    15162.393    1.0101649    1.0100209 
 1240000     274.6518   -81.807702    15154.962    1.0106602    1.0105161 
 1245000    256.73201     887.0602    15274.937    1.0027221    1.0025792 
 1250000     268.5267    566.69205    15274.818      1.00273     1.002587 
 1255000    261.01987   -45.683518    15609.021   0.98126065   0.98112075 
 1260000    276.30158   -1194.5327    15535.962   0.98587505   0.98573449 
 1265000    269.83456    -490.4602     15479.78   0.98945319   0.98931212 
 1270000    280.86133    318.56309    15388.246   0.99533876   0.99519686 
 1275000    261.23396    956.54673     15247.85    1.0045034    1.0043602 
 1280000    263.66851    853.23291    15103.657    1.0140933    1.0139487 
 1285000    260.18602   -32.485071    15157.944    1.0104614    1.0103173 
 1290000     290.1227    230.73516     15086.04    1.0152776    1.0151328 
 1295000    279.85968   -276.39605    15415.832   0.99355766     0.993416 
 1300000    265.93382    665.39523    15421.091   0.99321879   0.99307719 
 1305000    254.44224   -442.30093    15424.716   0.99298542   0.99284385 
 1310000    271.70855    1121.4043    15064.766    1.0167113    1.0165663 
 1315000    271.80662    18.149684    15255.576    1.0039947    1.0038516 
 1320000    262.49419    291.63069    15445.896   0.99162378    0.9914824 
 1325000    271.07625    115.15845    15242.719    1.0048416    1.0046983 
 1330000    281.21564   -818.92366    15508.033   0.98765057   0.98750976 
 1335000    275.82138    846.32537    15088.974    1.0150801    1.0149354 
 1340000    265.69104    344.21228    15447.647    0.9915114   0.99137004 
 1345000    268.01228    50.814785     15386.47   0.99545362    0.9953117 
 1350000    272.96731   -228.84418    15520.398   0.98686369   0.98672299 
 1355000    273.00467    518.28166    15267.762    1.0031934    1.0030503 
 1360000    266.07684   -89.269529    15217.492    1.0065073    1.0063638 
 1365000    273.56605    246.59293    15195.703    1.0079506    1.0078069 
 1370000    264.89376   -248.93927    15446.099   0.99161074   0.99146936 
 1375000    273.98332    582.24689      15536.3   0.98585364   0.98571309 
 1380000    264.49469    146.50945    15361.564   0.99706761   0.99692546 
 1385000    276.51384    109.16939    15341.983   0.99834013   0.99819779 
 1390000     267.6217    455.92739    15131.921    1.0121991    1.0120548 
 1395000    274.48308    534.40718    15062.741     1.016848     1.016703 
 1400000    273.68965    560.36661    15346.689   0.99803404   0.99789175 
 1405000    279.20819   -559.99651    15067.039    1.0165579    1.0164129 
 1410000    270.56475   -131.17479    15514.112    0.9872636   0.98712284 
 1415000    267.42077   -136.89626    15523.597   0.98666038   0.98651971 
 1420000     269.1138    -189.1349    15303.401    1.0008571    1.0007144 
 1425000    265.61747   -182.42192    15389.504   0.99525737   0.99511547 
 1430000    264.71179    346.66375    15344.156   0.99819879   0.99805648 
 1435000    271.05267   -412.12209    15362.613   0.99699954    0.9968574 
 1440000    273.10369   -407.87781     15441.43   0.99191055   0.99176913 
 1445000    267.20668      455.445    15679.452   0.97685289   0.97671362 
 1450000    273.08084    111.43032    15663.498   0.97784784   0.97770843 
 1455000    267.95618    951.28547    15284.641    1.0020855    1.0019427 
 1460000    280.76116    563.93637     14892.31     1.028485    1.0283384 
 1465000    259.73571   -237.65337    15377.362   0.99604326   0.99590125 
 1470000    283.52602   -211.61838    15250.386    1.0043364    1.0041932 
 1475000    275.50089   -1159.7778    15495.372   0.98845757   0.98831664 
 1480000    261.33537   -301.00382    15192.792    1.0081437        1.008 
 1485000    274.63788    1057.1228    15153.593    1.0107515    1.0106074 
 1490000    266.31553   -109.25388     15362.33   0.99701786   0.99687571 
 1495000    282.72884    719.10869     15004.11    1.0208215     1.020676 
 1500000    273.55899    -716.5562    15300.898    1.0010209    1.0008781 
 1505000     271.7641    4.3387925    15557.834   0.98448909   0.98434873 
 1510000    268.02377   -554.28203    15616.874   0.98076719   0.98062736 
 1515000    270.00925   -988.40039    15474.926   0.98976353   0.98962241 
 1520000    270.57604    383.98428     15381.33    0.9957863   0.99564433 
 1525000    270.73157   -316.43946    15487.513   0.98895913   0.98881813 
 1530000    275.25491   -648.92543    15345.216   0.99812984   0.99798754 
 1535000    264.45176    416.49194     15185.58    1.0086225    1.0084787 
 1540000    270.90164   -57.647583    15325.824   0.99939278    0.9992503 
 1545000    274.74728     589.7444    15179.522     1.009025    1.0088812 
 1550000    267.55576    106.56475    15446.182    0.9916054   0.99146403 
 1555000    270.33262    449.46378      15302.5    1.0009161    1.0007734 
 1560000    257.91576   -777.66849    15269.513    1.0030783    1.0029353 
 1565000    252.00832    477.78463    15248.908    1.0044337    1.0042905 
 1570000     278.2852   -688.95746     15270.59    1.0030076    1.0028646 
 1575000     267.2462   -216.28718    15025.389    1.0193758    1.0192305 
 1580000    273.81911   -426.48176    15203.835    1.0074115    1.0072678 
 1585000    258.70222    204.52657    15230.811    1.0056272    1.0054838 
 1590000    268.90587   -846.42093    15451.954   0.99123502    0.9910937 
 1595000    277.17036   -521.98046    15338.792   0.99854783   0.99840546 
 1600000    272.46032    942.02566    15235.256    1.0053338    1.0051905 
 1605000    266.69093    303.98698    15663.721   0.97783391   0.97769449 
 1610000    272.76672   -771.58326    15658.101   0.97818485   0.97804539 
 1615000    286.89159   -484.70233     15435.94   0.99226338   0.99212191 
 1620000    262.73427    828.15816    15086.274    1.0152618     1.015117 
 1625000    266.31205    -468.6987    15462.426   0.99056371   0.99042248 
 1630000    266.44956   -500.56396    15358.937   0.99723817   0.99709599 
 1635000    273.12757    188.63514    15264.273    1.0034227    1.0032796 
 1640000    265.90129    231.99508    15175.797    1.0092727    1.0091288 
 1645000    272.28501    619.69915    14987.999    1.0219188    1.0217731 
 1650000    270.66583    -679.9142    15364.758   0.99686033   0.99671821 
 1655000     280.9488    549.20031    15045.732    1.0179975    1.0178524 
 1660000    274.20873   -221.58862    15427.091   0.99283255     0.992691 
 1665000    263.68442    586.64431    15268.052    1.0031743    1.0030313 
 1670000    262.59262   -470.34847    15561.937    0.9842295   0.98408917 
 1675000    266.12249   -491.93082     15380.66   0.99582969   0.99568771 
 1680000    285.12302    179.71038    15457.659   0.99086915   0.99072788 
 1685000    270.61241    860.03429     15379.97   0.99587434   0.99573236 
 1690000    277.07385    523.19347    15329.382   0.99916083   0.99901838 
 1695000    285.66458    792.77799    15155.941     1.010595    1.0104509 
 1700000    264.27427   -599.98851    15245.786    1.0046394    1.0044962 
 1705000    266.83223    -883.5169    15283.861    1.0021366    1.0019938 
 1710000    272.33983    1249.9397    15154.682    1.0106789    1.0105348 
 1715000    270.93917   -85.473429      15240.6    1.0049812     1.004838 
 1720000     267.7497    38.095031     15449.78   0.99137449   0.99123315 
 1725000    267.74827    376.17674    15573.046   0.98352742    0.9833872 
 1730000    264.97903    580.24408    15518.457   0.98698716   0.98684645 
 1735000    273.05841   -450.91424    15463.189    0.9905148   0.99037358 
 1740000    267.81692    4.6116186    15311.168    1.0003494    1.0002068 
 1745000    284.62231   -390.23986    15432.272   0.99249919   0.99235769 
 1750000    262.74891    228.16929    15175.569    1.0092878    1.0091439 
 1755000    277.54228    629.95862     15165.39    1.0099653    1.0098213 
 1760000    263.06839    -258.4504    15431.802   0.99252944   0.99238794 
 1765000    261.47782    -938.9881     15412.13   0.99379631   0.99365462 
 1770000    270.12971   -75.890247    15112.199    1.0135201    1.0133756 
 1775000    276.18789   -577.54051    15455.859   0.99098458    0.9908433 
 1780000    271.30318    193.58785    15055.901    1.0173099    1.0171649 
 1785000      265.774     250.8967    15223.075    1.0061382    1.0059948 
 1790000    276.30753    807.86617    15115.136    1.0133232    1.0131787 
 1795000    263.25855    -544.8274     15422.01   0.99315961   0.99301801 
 1800000    275.45814    394.01689    15569.459   0.98375401   0.98361375 
 1805000    269.72212    682.70994    15475.901   0.98970116   0.98956006 
 1810000     277.7017   -297.61028    15439.502   0.99203445   0.99189301 
 1815000     272.1372   -678.30213    15502.355   0.98801234   0.98787148 
 1820000    259.65474    745.71032     15162.94    1.0101285    1.0099845 
 1825000    271.81168    1123.0031    15134.653    1.0120164    1.0118721 
 1830000    261.93941   -75.353851    15248.785    1.0044418    1.0042986 
 1835000    276.27808    580.46315    15333.331   0.99890347   0.99876105 
 1840000    272.71595    -801.0931    15524.155   0.98662486    0.9864842 
 1845000    277.65578    673.40471    15138.078    1.0117875    1.0116432 
 1850000    267.81464   -1096.1512    15444.595   0.99170729    0.9915659 
 1855000    275.65615     331.1326    15144.326      1.01137    1.0112258 
 1860000    266.99393   -333.50427    14984.658    1.0221467    1.0220009 
 1865000     267.7855   -221.02342    15317.885   0.99991074   0.99976818 
 1870000    270.29571    55.662717    15469.503   0.99011055   0.98996939 
 1875000    258.75348    195.59468    15366.791   0.99672843   0.99658633 
 1880000    270.74782    423.47042    15340.796   0.99841741   0.99827506 
 1885000     267.3541    770.78913    15469.241   0.99012728   0.98998612 
 1890000    276.11412   -486.37825    15310.666    1.0003822    1.0002396 
 1895000    261.82615    83.381339    15014.825     1.020093    1.0199476 
 1900000    279.14217   -267.10139    15356.629     0.997388    0.9972458 
 1905000    267.62945   -339.19316    15261.038    1.0036354    1.0034923 
 1910000    272.06532    735.56759    15362.026   0.99703761   0.99689546 
 1915000    275.86442    580.60298    15115.006    1.0133319    1.0131874 
 1920000    265.06711    296.89232    15079.843    1.0156948      1.01555 
 1925000    265.58025    1420.8967    14969.611     1.023174    1.0230282 
 1930000    279.29616    277.92775    15408.916   0.99400357   0.99386185 
 1935000    272.61368   -524.79651    15204.662    1.0073567    1.0072131 
 1940000    267.60171    388.90502    15324.052   0.99950831   0.99936581 
 1945000    282.03645    295.12853    15268.789    1.0031259    1.0029829 
 1950000    275.11691    361.09474    15279.143    1.0024461    1.0023032 
 1955000    265.50737    -138.4776     15391.83   0.99510698   0.99496511 
 1960000    269.78251   -628.97216    15255.162     1.004022    1.0038788 
 1965000     269.5144    680.34257    15212.741    1.0068217    1.0066782 
 1970000    283.30211   -137.80417    15011.151    1.0203426    1.0201972 
 1975000    273.55528   -1129.8636     15194.51    1.0080297     1.007886 
 1980000    277.71708    219.73251    15122.598    1.0128232    1.0126788 
 1985000    256.62926   -76.615259    15188.753    1.0084118     1.008268 
 1990000    274.19524   -298.43456    15245.917    1.0046308    1.0044876 
 1995000    276.98716   -84.382653     15447.56   0.99151696    0.9913756 
 2000000    263.08482     17.75907    15378.288   0.99598328   0.99584128 
Loop time of 92475.2 on 1 procs for 2000000 steps with 1536 atoms

Performance: 1.869 ns/day, 12.844 hours/ns, 21.627 timesteps/s
100.0% CPU use with 1 MPI tasks x no OpenMP threads

MPI task timing breakdown:
Section |  min time  |  avg time  |  max time  |%varavg| %total
---------------------------------------------------------------
Pair    | 76933      | 76933      | 76933      |   0.0 | 83.19
Bond    | 2.39       | 2.39       | 2.39       |   0.0 |  0.00
Kspace  | 7771.5     | 7771.5     | 7771.5     |   0.0 |  8.40
Neigh   | 1973.6     | 1973.6     | 1973.6     |   0.0 |  2.13
Comm    | 206.26     | 206.26     | 206.26     |   0.0 |  0.22
Output  | 2.8314     | 2.8314     | 2.8314     |   0.0 |  0.00
Modify  | 5533.2     | 5533.2     | 5533.2     |   0.0 |  5.98
Other   |            | 52.53      |            |       |  0.06

Nlocal:        1536.00 ave        1536 max        1536 min
Histogram: 1 0 0 0 0 0 0 0 0 0
Nghost:        13634.0 ave       13634 max       13634 min
Histogram: 1 0 0 0 0 0 0 0 0 0
Neighs:       940911.0 ave      940911 max      940911 min
Histogram: 1 0 0 0 0 0 0 0 0 0

Total # of neighbors = 940911
Ave neighs/atom = 612.57227
Ave special neighs/atom = 2.0000000
Neighbor list builds = 77890
Dangerous builds = 0
Total wall time: 25:41:15
