LAMMPS (29 Oct 2020)
# AA model for water

units           real
atom_style      full
read_data       data.singleTIP4P05
Reading data file ...
  orthogonal box = (0.0000000 0.0000000 0.0000000) to (3.5000000 3.5000000 3.5000000)
  1 by 1 by 1 MPI processor grid
  reading atoms ...
  3 atoms
  scanning bonds ...
  2 = max bonds/atom
  scanning angles ...
  1 = max angles/atom
  reading bonds ...
  2 bonds
  reading angles ...
  1 angles
Finding 1-2 1-3 1-4 neighbors ...
  special bond factors lj:    0.0      0.0      0.0     
  special bond factors coul:  0.0      0.0      0.0     
     2 = max # of 1-2 neighbors
     1 = max # of 1-3 neighbors
     1 = max # of 1-4 neighbors
     2 = max # of special neighbors
  special bonds CPU = 0.000 seconds
  read_data CPU = 0.002 seconds

mass           1 1.00794 # H
mass           2 15.9994 # O

pair_style lj/cut/tip4p/long 2 1 1 1 0.1546 12.0

pair_coeff 1 1 0.0 0.0   # Hw Hw
pair_coeff 1 2 0.0 0.0	 # Hw Ow
pair_coeff 2 2 0.18520 3.1589  # Ow-Ow

bond_style harmonic
bond_coeff 1 0.0 0.9572

angle_style harmonic
angle_coeff 1 0.0 104.52

pair_modify tail yes
#kspace_style pppm 1.0e-5
kspace_style	pppm/tip4p 1.0e-5
kspace_modify   order 5

replicate 8 8 8
Replicating atoms ...
  orthogonal box = (0.0000000 0.0000000 0.0000000) to (28.000000 28.000000 28.000000)
  1 by 1 by 1 MPI processor grid
  1536 atoms
  1024 bonds
  512 angles
Finding 1-2 1-3 1-4 neighbors ...
  special bond factors lj:    0.0      0.0      0.0     
  special bond factors coul:  0.0      0.0      0.0     
     2 = max # of 1-2 neighbors
     1 = max # of 1-3 neighbors
     1 = max # of 1-4 neighbors
     2 = max # of special neighbors
  special bonds CPU = 0.000 seconds
  replicate CPU = 0.002 seconds

variable        Text equal 250

group           oxygen type 2
512 atoms in group oxygen
group           hydrogen type 1
1024 atoms in group hydrogen

velocity        all create ${Text} 1234
velocity        all create 250 1234

neighbor        2.0 bin
neigh_modify    every 1 delay 0 check yes

timestep        1.0

variable   nH equal count(hydrogen)
variable   nO equal count(oxygen)
variable   mH2O equal (2*1.00794+15.9994) # H2O
variable   denwat equal (v_nO*v_mH2O*10)/(vol*6.023)
#fix loadBalance all balance 20 z 5 1.05
#fix   20 all balance 10000 0.9 shift xyz 20 1.1 out tmp.balance

compute h2oRDF all rdf 100 1 1 1 2 2 2 cutoff 10.0
fix    avgrdf all ave/time 100 100 10000 c_h2oRDF[*] file tmprdf.dat mode vector

compute onlyOw oxygen chunk/atom molecule
compute h2oMSD oxygen msd #msd/chunk #onlyOw #com yes average yes
fix     noavgmsd all ave/time 1000 1 1000 c_h2oMSD[*] file tmpmsd.dat #mode vector

fix         constrain all shake 1.0e-4 100 0 b 1 a 1
       0 = # of size 2 clusters
       0 = # of size 3 clusters
       0 = # of size 4 clusters
     512 = # of frozen angles
  find clusters CPU = 0.000 seconds
fix         integrate all npt temp ${Text} ${Text} 10.0 iso 1.0 1.0 110
fix         integrate all npt temp 250 ${Text} 10.0 iso 1.0 1.0 110
fix         integrate all npt temp 250 250 10.0 iso 1.0 1.0 110

#variable        zPress equal c_thermo_press[3]
# Evaluate and average surface tension in mN/m:
#variable        st equal 0.5*lz*(v_zPress-0.5*(v_xPress+v_yPress))*${convFac}
#fix             st all ave/time ${Ne} ${Nr} ${Nf} v_st
#variable        xyArea equal lx*ly

thermo_style    custom step temp press vol density v_denwat
thermo_modify   flush yes
thermo          5000


dump           1 all custom 1000 dump.lammpstrj id type xs ys zs
dump_modify    1 sort id
restart        500000 x.rest
run 2000000
PPPM initialization ...
  extracting TIP4P info from pair style
  using 12-bit tables for long-range coulomb (../kspace.cpp:328)
  G vector (1/distance) = 0.26425212
  grid = 24 24 24
  stencil order = 5
  estimated absolute RMS force accuracy = 0.0019073645
  estimated relative force accuracy = 5.7439716e-06
  using double precision KISS FFT
  3d grid and FFT values/proc = 29791 13824
WARNING: Compute rdf cutoff less than neighbor cutoff - forcing a needless neighbor list build (../compute_rdf.cpp:178)
Neighbor list info ...
  update every 1 steps, delay 0 steps, check yes
  max neighbors/atom: 2000, page size: 100000
  master list distance cutoff = 14.3092
  ghost atom cutoff = 14.3092
  binsize = 7.1546, bins = 4 4 4
  2 neighbor lists, perpetual/occasional/extra = 1 1 0
  (1) pair lj/cut/tip4p/long, perpetual
      attributes: half, newton on
      pair build: half/bin/newton
      stencil: half/bin/3d/newton
      bin: standard
  (2) compute rdf, occasional
      attributes: half, newton on, cut 12.0
      pair build: half/bin/newton
      stencil: half/bin/3d/newton
      bin: standard
Per MPI rank memory allocation (min/avg/max) = 16.06 | 16.06 | 16.06 Mbytes
Step Temp Press Volume Density v_denwat 
       0    375.12219    3725.4788        21952   0.69772766   0.69762819 
    5000    238.58602    966.50993    14699.254    1.0419928    1.0418443 
   10000    241.32843    -715.4406    15069.715    1.0163774    1.0162325 
   15000    257.20031    -935.6882    15217.629    1.0064983    1.0063548 
   20000    254.01618   -130.87426    15125.546    1.0126258    1.0124814 
   25000    237.97029    385.25491    15216.236    1.0065904    1.0064469 
   30000    250.91818   -664.89937    15245.689    1.0046458    1.0045026 
   35000    247.43832    698.58758    15361.423   0.99707677   0.99693461 
   40000     256.4165    127.08012    15286.911    1.0019367    1.0017939 
   45000    254.88134    303.48624    14846.727    1.0316427    1.0314956 
   50000    258.04886    662.15905    15254.151    1.0040885    1.0039453 
   55000    252.69042    311.40631    15341.791   0.99835266   0.99821032 
   60000    254.24758   -20.899857    15498.153   0.98828019   0.98813929 
   65000    251.35196   -905.85875    15548.818   0.98505996   0.98491952 
   70000    246.04879   -231.66887    15242.701    1.0048427    1.0046995 
   75000    243.08626    437.74531    15363.766   0.99692471   0.99678257 
   80000    249.70229   -83.808436    15341.335   0.99838234      0.99824 
   85000    241.19133   -609.36241    15236.707    1.0052381    1.0050947 
   90000    244.56316     196.7114    15012.675    1.0202391    1.0200936 
   95000    245.75334      119.612    15148.287    1.0111056    1.0109615 
  100000    256.12828    556.54113    15195.987    1.0079317     1.007788 
  105000    249.71593    171.79418    15257.328    1.0038794    1.0037363 
  110000    241.83078   -44.710374    15465.335   0.99037737   0.99023617 
  115000    240.76027    282.01893    15197.747     1.007815    1.0076713 
  120000    253.62912    359.93637    15386.637   0.99544285   0.99530093 
  125000    244.71965    956.82528    15453.828   0.99111477   0.99097347 
  130000    262.34775   -442.68849    15334.977   0.99879625   0.99865385 
  135000    259.35057    332.99221    15351.501    0.9977212   0.99757896 
  140000    250.05463   -212.57859    15366.982   0.99671606   0.99657396 
  145000    262.00918   -535.35758    15444.508   0.99171288   0.99157149 
  150000    255.16199   -156.10726    15332.279   0.99897202    0.9988296 
  155000    257.33234   -298.37152    15576.898   0.98328418   0.98314399 
  160000     252.4359    221.95766    15206.549    1.0072317    1.0070881 
  165000    250.60625    466.29983     15192.48    1.0081644    1.0080207 
  170000    254.90579    294.98081     15273.04    1.0028467    1.0027037 
  175000    251.10013     670.8427    15226.141    1.0059356    1.0057922 
  180000    245.57594    66.980188    15482.293   0.98929258   0.98915154 
  185000    248.85111    -473.9828    15383.439   0.99564976   0.99550781 
  190000    251.76657   -140.33152    15495.165   0.98847079   0.98832986 
  195000    244.31902   -223.53889    15489.864   0.98880905   0.98866807 
  200000    246.72362    150.62842    15342.365   0.99831532   0.99817298 
  205000    256.98416    811.11615    15265.754    1.0033254    1.0031823 
  210000    251.01936    425.56269     15149.96    1.0109939    1.0108498 
  215000    255.57912    271.83885    15425.405   0.99294105   0.99279949 
  220000    252.07983    -189.5034    15339.085   0.99852874   0.99838638 
  225000    250.66919    162.23971    15185.968    1.0085967    1.0084529 
  230000    256.51003    430.69253    15235.432    1.0053222    1.0051788 
  235000    254.43952     902.9125     15495.27    0.9884641   0.98832318 
  240000    248.65042    176.71546    15275.713    1.0026712    1.0025282 
  245000    246.18536    129.61413    15493.159   0.98859877   0.98845782 
  250000    246.40222    -302.4103    15692.496   0.97604089   0.97590174 
  255000      250.028   -22.809603    15673.435   0.97722785   0.97708853 
  260000    241.37812   -854.71564    15650.751   0.97864429   0.97850476 
  265000    249.32689    155.10487    15288.675    1.0018211    1.0016783 
  270000      252.129    102.70257    15271.249    1.0029643    1.0028213 
  275000    249.74946   -206.21835    15477.885   0.98957434   0.98943325 
  280000    246.50772    1363.4969    15553.263   0.98477844   0.98463804 
  285000    254.26066     364.6627    15480.473   0.98940892   0.98926786 
  290000    245.78151   -185.00702    15524.932   0.98657549   0.98643483 
  295000    246.89878   -177.26616    15503.815   0.98791928   0.98777843 
  300000    248.05786   -98.407199    15328.083   0.99924548   0.99910302 
  305000    252.40521    430.76051    15299.093    1.0011389    1.0009962 
  310000     239.6029     278.7708    15353.095   0.99761758   0.99747535 
  315000    246.83197    448.88679    15300.194    1.0010669    1.0009242 
  320000    250.18047   -570.78583    15277.592    1.0025479     1.002405 
  325000    250.92173    188.96053    15213.864    1.0067474    1.0066038 
  330000     254.6865   -456.02925     15416.08   0.99354169   0.99340004 
  335000    250.94696   -10.374001     15247.55    1.0045232      1.00438 
  340000    247.55893   -122.38893    15367.682   0.99667067   0.99652857 
  345000    244.80474    526.69681    15499.755   0.98817807   0.98803719 
  350000    251.16659    99.720031    15521.998   0.98676199   0.98662131 
  355000    262.19313   -800.52704    15747.736   0.97261714   0.97247848 
  360000    252.12305    179.41857    15322.443   0.99961326   0.99947074 
  365000    250.87797    -83.96963    15472.629   0.98991051   0.98976938 
  370000    246.28384    -525.9751    15532.152   0.98611693   0.98597634 
  375000    247.51917   -190.36528    15328.468   0.99922041   0.99907795 
  380000     248.2476    404.12602     15027.65    1.0192224    1.0190771 
  385000    253.78481    506.99326    15501.659   0.98805669   0.98791582 
  390000     242.3246    475.29504    15183.891    1.0087347    1.0085909 
  395000    259.77171    275.95777    15416.871   0.99349068   0.99334904 
  400000    259.10785   -452.78273    15542.018   0.98549092   0.98535042 
  405000    255.40796     885.1171    15319.917   0.99977812   0.99963558 
  410000    252.80415   -386.35239    15250.726     1.004314    1.0041708 
  415000    254.93987   -377.61363    15215.827    1.0066175     1.006474 
  420000    238.90837   -726.56326    15298.143    1.0012011    1.0010584 
  425000    248.51253   -856.53361    15674.802   0.97714266   0.97700335 
  430000    232.01783    378.17293    15130.804    1.0122739    1.0121295 
  435000    261.75462   -39.665874    15226.923    1.0058839    1.0057405 
  440000    249.98181    451.64955    15201.479    1.0075676    1.0074239 
  445000    255.30499    14.361805    15385.921    0.9954892   0.99534727 
  450000     262.1508    159.23345     15382.08   0.99573777   0.99559581 
  455000    237.32758    470.18184    15175.602    1.0092857    1.0091418 
  460000    239.16238    251.55641    15145.435     1.011296    1.0111518 
  465000    255.89808    316.82958    15354.935   0.99749807   0.99735586 
  470000    242.57191    823.72925    15160.375    1.0102994    1.0101554 
  475000    252.90476    553.60506    15441.221   0.99192397   0.99178255 
  480000    241.30124    750.19128    15352.788   0.99763757   0.99749533 
  485000    245.23355   -555.68276    15368.176   0.99663861   0.99649652 
  490000    244.00876   -102.52495    15330.525    0.9990863   0.99894386 
  495000     247.6166   -438.11961    15288.517    1.0018315    1.0016887 
  500000    248.46394    86.014346     15464.15   0.99045324   0.99031203 
  505000    258.94607   -335.42701     15675.91   0.97707359   0.97693428 
  510000    245.27583   -100.14121      15565.1   0.98402949    0.9838892 
  515000    254.37845    282.01665    15401.569   0.99447772   0.99433594 
  520000    250.60999   -492.13243    15756.328   0.97208672   0.97194813 
  525000    241.79419   -108.46132    15880.812   0.96446694   0.96432943 
  530000     254.5161    526.35557     15379.63   0.99589639    0.9957544 
  535000    257.96283   -203.82011    15443.092   0.99180383   0.99166243 
  540000    245.86763    72.192981     15462.82   0.99053844   0.99039721 
  545000    234.25974   -736.55196    15679.874   0.97682655   0.97668729 
  550000    240.23288    643.54482    15349.587   0.99784561   0.99770334 
  555000    247.93483   -609.05987    15510.675   0.98748237   0.98734158 
  560000    258.00964   -83.025844    15287.831    1.0018764    1.0017336 
  565000    259.49529   -1055.4278    15219.702    1.0063612    1.0062177 
  570000    249.39915   -814.56544    15352.811   0.99763602   0.99749378 
  575000    249.95401   -672.55967    15467.676   0.99022744   0.99008626 
  580000    235.50421   -217.98886     15467.94   0.99021056   0.99006939 
  585000    259.64907   -144.18878    15541.289   0.98553713   0.98539662 
  590000     246.3776    397.08973    15366.006   0.99677939   0.99663727 
  595000    250.37392   -296.70103      15419.8     0.993302   0.99316038 
  600000    239.46161    296.54243    15211.401    1.0069104    1.0067668 
  605000    249.96206   -891.61349    15227.279    1.0058604     1.005717 
  610000    248.88098    472.50649    15332.637   0.99894872    0.9988063 
  615000    249.18361    597.48755    15342.112   0.99833176   0.99818942 
  620000    252.35333    304.42178    15261.871    1.0035806    1.0034375 
  625000    244.97245   -52.476222    15283.093     1.002187    1.0020441 
  630000    245.93275    588.13938    15390.249   0.99520925   0.99506736 
  635000    251.48487   -668.79052    15591.846   0.98234153   0.98220147 
  640000    252.31793    837.70433    15332.009   0.99898961   0.99884718 
  645000    245.93748    357.93874    15576.602   0.98330291   0.98316272 
  650000    236.82455   -769.08223    15720.989   0.97427189   0.97413298 
  655000    257.09212   -354.42061    15398.883   0.99465122   0.99450941 
  660000    247.72037   -390.94491    15455.275   0.99102199    0.9908807 
  665000    246.32617   -473.99148    15620.338   0.98054972   0.98040992 
  670000     248.4656     -69.9393    15535.822   0.98588397   0.98574341 
  675000    237.70822    331.21351    15503.939   0.98791136   0.98777051 
  680000    253.19875   -479.25004    15517.008   0.98707932   0.98693859 
  685000    257.17768   -522.34215    15564.501   0.98406735   0.98392705 
  690000    246.14006   -745.56372    15497.972   0.98829173   0.98815083 
  695000    241.53125    112.91838    15458.826   0.99079438   0.99065312 
  700000    253.65548   -274.02837    15442.316   0.99185366   0.99171225 
  705000    240.65423   -300.32829    15685.296   0.97648891   0.97634969 
  710000    247.67915   -912.38991    15610.244   0.98118375   0.98104386 
  715000    245.08708    235.15229    15574.201    0.9834545   0.98331429 
  720000    244.88791    146.69104    15520.383   0.98686469   0.98672399 
  725000    243.42188   -694.27834    15178.305    1.0091059    1.0089621 
  730000    260.54113    321.10964    15385.532   0.99551431   0.99537238 
  735000    250.95681    914.33488     15149.84    1.0110019    1.0108578 
  740000     240.7893   -343.18318    15454.459   0.99107434   0.99093304 
  745000    247.98551   -198.66015    15398.971   0.99464552   0.99450371 
  750000    263.03642    76.554428    15489.803   0.98881292   0.98867195 
  755000     254.4623    101.33439    15612.044   0.98107059   0.98093072 
  760000    251.08006    857.80587    15335.064   0.99879061   0.99864821 
  765000    249.51906    944.30713    15222.379    1.0061842    1.0060408 
  770000    244.86656    6.0392215    15469.223   0.99012843   0.98998727 
  775000    252.68013    656.20737    15198.684    1.0077529    1.0076092 
  780000    250.51161   -479.75024    15350.172   0.99780759   0.99766533 
  785000    244.65495   -226.22884     15387.69   0.99537474   0.99523283 
  790000    251.55164    666.13039     15215.28    1.0066537    1.0065102 
  795000    246.61246    -210.4706    15380.488   0.99584083   0.99569885 
  800000    259.15488    99.216929    15647.516   0.97884658   0.97870702 
  805000    241.91688    269.98041    15481.608   0.98933634   0.98919528 
  810000     253.3591    311.14869    15682.776   0.97664582   0.97650658 
  815000    234.00308   -12.313555    15601.051   0.98176194   0.98162197 
  820000    246.25937    952.26622    15220.058    1.0063377    1.0061942 
  825000    255.47197   -467.69563    15319.147   0.99982839   0.99968584 
  830000    247.17687    1048.7081    15352.601   0.99764969   0.99750745 
  835000    243.59367    233.51947     15432.36   0.99249352   0.99235202 
  840000    250.90975   -634.67406    15153.802    1.0107376    1.0105935 
  845000    262.22108   -716.45576    15263.609    1.0034664    1.0033233 
  850000    238.28263   -188.22927    15316.832    0.9999795   0.99983693 
  855000    238.60379   -575.26178    15349.663   0.99784065   0.99769838 
  860000    242.99467   -279.68976    15237.164    1.0052079    1.0050646 
  865000    246.35248    163.90933    15259.341     1.003747    1.0036039 
  870000    256.42818    341.14571    15408.644   0.99402112    0.9938794 
  875000    251.60814    369.73442     15121.55    1.0128934     1.012749 
  880000    260.34091   -349.21508    15630.418   0.97991734   0.97977764 
  885000    243.32966   -324.87776    15500.658   0.98812049   0.98797961 
  890000    254.69235    599.12915    15365.312   0.99682438   0.99668226 
  895000    237.13992    751.36813    15450.818   0.99130786   0.99116653 
  900000     248.7815    511.54653    15379.367   0.99591342   0.99577143 
  905000    255.63327    28.805064    15624.063    0.9803159   0.98017614 
  910000    249.68267    25.120128    15676.872   0.97701361   0.97687431 
  915000    240.68927    161.93171    15735.314   0.97338495   0.97324618 
  920000    248.88731   -215.81583    15526.734   0.98646102   0.98632038 
  925000    261.20999    789.59243     15370.99   0.99645619   0.99631412 
  930000    260.59779    399.83635    15543.867   0.98537371   0.98523322 
  935000    247.77221   -4.5618249    15539.641    0.9856417   0.98550117 
  940000     250.9285    394.99093    15512.778    0.9873485   0.98720774 
  945000     255.8988    210.81119    15584.292   0.98281769   0.98267757 
  950000    255.96747    60.395367    15381.365   0.99578402   0.99564205 
  955000     234.1654   -236.80177    15444.939   0.99168523   0.99154384 
  960000    259.45163   -514.68951    15472.504   0.98991852   0.98977738 
  965000    254.20396    833.17512    15349.967   0.99782089   0.99767863 
  970000    249.00289   -422.97925    15559.269   0.98439828   0.98425793 
  975000    256.62025    885.89877    15275.061     1.002714     1.002571 
  980000    249.15494    568.29483    15505.437   0.98781596   0.98767512 
  985000    245.47335    15.415245     15347.21   0.99800015   0.99785786 
  990000    254.99639    320.40833    15275.931    1.0026569    1.0025139 
  995000    250.45548    586.01169    15119.138     1.013055    1.0129105 
 1000000    245.78507    209.10098    15202.348      1.00751    1.0073663 
 1005000    246.29412   -305.10713    15361.057   0.99710052   0.99695836 
 1010000     249.7694    643.52081    15034.698    1.0187446    1.0185994 
 1015000    245.67015   -43.690906    15605.424   0.98148683    0.9813469 
 1020000    256.49003   -78.314292    15607.192   0.98137563   0.98123571 
 1025000    249.08441   -353.43275    15525.332   0.98655012   0.98640947 
 1030000    255.61947    -52.25199    15383.128   0.99566993   0.99552798 
 1035000    240.09066    78.719196    15117.385    1.0131724     1.013028 
 1040000    242.05133   -174.43506    15385.717   0.99550239   0.99536046 
 1045000     247.9188    1296.8689     15019.92    1.0197469    1.0196015 
 1050000    251.24644   -58.462857    15241.509    1.0049214    1.0047781 
 1055000    251.98263    140.84985    15224.125    1.0060688    1.0059254 
 1060000     243.8339   -30.385722    15132.383    1.0121682    1.0120239 
 1065000    242.54135    545.44744    15215.877    1.0066142    1.0064707 
 1070000    235.42802    793.14895    15124.305    1.0127089    1.0125645 
 1075000    250.63299    -357.4798    15458.488   0.99081604   0.99067478 
 1080000    250.02309    132.85556    15333.676   0.99888101    0.9987386 
 1085000    247.88368   -183.74367    15335.448   0.99876557   0.99862318 
 1090000    254.46999    162.91216    15281.691     1.002279    1.0021361 
 1095000    260.53227   -627.30342    15336.151   0.99871979    0.9985774 
 1100000    248.63344   -189.59504    15026.173    1.0193226    1.0191773 
 1105000    256.12469    -143.2857    15233.351    1.0054595    1.0053162 
 1110000    257.52088     1089.565    15105.912     1.013942    1.0137974 
 1115000    245.14778   -166.15256    15351.746   0.99770528   0.99756304 
 1120000    243.38808   -471.18327     15390.16   0.99521499    0.9950731 
 1125000    237.61287   -222.14323    15283.193    1.0021805    1.0020376 
 1130000    253.25995    -44.71752    15356.656   0.99738628   0.99724409 
 1135000     251.8689   -146.11443    15385.721   0.99550209   0.99536016 
 1140000    249.87097    1346.1642     15321.63   0.99966632    0.9995238 
 1145000    249.35453   -118.27239    15417.293   0.99346352   0.99332188 
 1150000    250.99225   -140.42462    15375.416    0.9961693   0.99602727 
 1155000    245.24082    759.87146    15309.744    1.0004424    1.0002998 
 1160000    253.42028   -275.28289    15289.775    1.0017491    1.0016062 
 1165000    248.26113   -273.56442    15036.824    1.0186006    1.0184553 
 1170000    248.53207   -236.59311    15358.995   0.99723434   0.99709216 
 1175000    251.38299   -436.81884    15766.714   0.97144639   0.97130789 
 1180000    259.36324    279.77224    15731.776   0.97360387   0.97346506 
 1185000    257.75862   -24.259926    15366.279   0.99676163   0.99661952 
 1190000    247.52529    424.38778    15181.573    1.0088887    1.0087449 
 1195000    247.14107   -338.35998    15292.861    1.0015469    1.0014041 
 1200000    247.13087    1043.0465    14984.671    1.0221457        1.022 
 1205000      253.579    735.10627    15093.098    1.0148028    1.0146581 
 1210000    252.47732   -141.31948    15170.774    1.0096069     1.009463 
 1215000    249.63498   -767.01834    15250.478    1.0043303    1.0041871 
 1220000    247.99922   -565.41802    15051.796    1.0175874    1.0174423 
 1225000    250.53678   -444.66705    15425.971    0.9929046   0.99276304 
 1230000    242.34867    652.24053    15281.773    1.0022736    1.0021307 
 1235000    260.00496    193.42237    15328.126   0.99924269   0.99910022 
 1240000    252.32639    67.264647    15520.325   0.98686839   0.98672769 
 1245000     236.6581    160.58718    15359.398   0.99720823   0.99706606 
 1250000    257.03613    9.7604707    15568.889   0.98379004   0.98364978 
 1255000    251.96923    885.16803    15261.882    1.0035799    1.0034368 
 1260000    251.55075   -38.313658    15389.818   0.99523707   0.99509517 
 1265000    243.18909    214.69871     15274.23    1.0027686    1.0026256 
 1270000    256.78471   -575.12125    15422.851   0.99310545   0.99296386 
 1275000    252.49615    160.02639    15471.389   0.98998981   0.98984867 
 1280000    246.54924    72.310359    15266.954    1.0032465    1.0031034 
 1285000    256.74878    580.07546    15170.234    1.0096428    1.0094989 
 1290000    251.44599   -570.97506    15456.809   0.99092366   0.99078238 
 1295000    246.84226   -182.47414    15355.706   0.99744795   0.99730574 
 1300000    251.44607     67.03226    15385.404   0.99552264    0.9953807 
 1305000    260.01843    75.707081    15588.348   0.98256193   0.98242184 
 1310000    246.27743    472.92431    15138.179    1.0117807    1.0116365 
 1315000    260.94338   -288.57849    15323.166   0.99956613   0.99942362 
 1320000    260.59476   -85.919947    15598.441   0.98192617   0.98178618 
 1325000    246.33932   -387.24979    15361.328   0.99708293   0.99694078 
 1330000    246.92524   -272.60331    15505.226   0.98782937   0.98768854 
 1335000    255.29834    50.031046    15217.545    1.0065039    1.0063604 
 1340000    246.12048   -126.26981      15317.9   0.99990979   0.99976723 
 1345000    259.61093   -541.03128    15521.428   0.98679825   0.98665756 
 1350000    253.18989     366.7428    15424.084   0.99302607    0.9928845 
 1355000    244.70835    450.58874     15388.82   0.99530165   0.99515975 
 1360000    258.26518    -428.4982    15445.004   0.99168102   0.99153964 
 1365000    259.11072    610.84185    15247.568     1.004522    1.0043788 
 1370000    248.67958   -88.964009    15423.864   0.99304022   0.99289864 
 1375000    250.40694    625.06719    15425.391   0.99294196    0.9928004 
 1380000    241.39552   -770.08347    15812.965   0.96860504   0.96846695 
 1385000    244.75148    345.99086    15271.487    1.0029487    1.0028057 
 1390000    238.63641   -23.832728    15506.082   0.98777484   0.98763401 
 1395000    243.72459    336.03544    15266.279    1.0032908    1.0031478 
 1400000    250.47494   -990.99419    15389.259   0.99527327   0.99513137 
 1405000    251.31612    43.118881    15217.396    1.0065137    1.0063702 
 1410000     251.8733    45.395599    15229.724     1.005699    1.0055556 
 1415000    240.18824    484.63519     15005.92    1.0206983    1.0205528 
 1420000    244.14969   -174.32319    15283.554    1.0021568    1.0020139 
 1425000    251.28794   -681.91758    15403.966   0.99432299   0.99418122 
 1430000    250.69123    186.53388     15522.51   0.98672944   0.98658876 
 1435000    244.06591     264.4523    15494.236   0.98853001   0.98838908 
 1440000    250.38083   -268.02007     15431.89   0.99252378   0.99238227 
 1445000    254.76346    158.54874    15057.893    1.0171753    1.0170303 
 1450000    255.46707    132.53335    15044.337    1.0180919    1.0179468 
 1455000     249.9553    282.91284    15316.786    0.9999825   0.99983993 
 1460000    248.78434   -876.92032    15278.162    1.0025105    1.0023676 
 1465000    251.50828    797.77428    15750.263    0.9724611   0.97232246 
 1470000    245.48536   -656.84524    15410.499   0.99390148   0.99375978 
 1475000    253.90935    536.84792    15423.612   0.99305649   0.99291491 
 1480000    255.29583   -35.789703    15450.402   0.99133455   0.99119322 
 1485000    239.35697    420.91828    15726.696   0.97391835    0.9737795 
 1490000    253.81119    727.80849    15783.036   0.97044178   0.97030342 
 1495000    258.14269    649.12639    15590.527   0.98242464   0.98228457 
 1500000    252.92522    221.25432    15325.527   0.99941214   0.99926965 
 1505000    255.40299   -108.42569    15527.931   0.98638494   0.98624431 
 1510000    235.30162    189.03928    15326.323   0.99936021   0.99921773 
 1515000    250.18239    91.186802     15254.28      1.00408    1.0039368 
 1520000    251.14046    160.88467    15218.815    1.0064199    1.0062764 
 1525000     255.2218   -424.19278    15131.663    1.0122164    1.0120721 
 1530000    249.22229   -263.94096    15225.505    1.0059777    1.0058342 
 1535000    248.99095    240.56141    15166.114    1.0099171    1.0097731 
 1540000    255.87469   -551.70658    15576.394   0.98331601   0.98317582 
 1545000    260.37272   -225.54458    15472.312   0.98993078   0.98978965 
 1550000    258.83137    865.07012    15314.727     1.000117   0.99997436 
 1555000    254.82594   -476.57686    15426.962   0.99284083   0.99269928 
 1560000    248.66402     345.7937    15240.602    1.0049811    1.0048379 
 1565000     242.3051    828.39038    15342.133   0.99833039   0.99818806 
 1570000    262.18146   -425.70758    15625.138   0.98024846    0.9801087 
 1575000    233.20935   -133.98762    15345.612   0.99810409   0.99796179 
 1580000    237.46694   -301.24083    15433.398   0.99242681   0.99228532 
 1585000    244.40371    246.42002    15486.727   0.98900936   0.98886836 
 1590000    256.44876    265.12775    15422.502   0.99312794   0.99298635 
 1595000       254.64   -287.11696    15191.096    1.0082563    1.0081125 
 1600000    258.91665   -418.57748    15112.598    1.0134933    1.0133488 
 1605000    261.28018    27.431882    15102.446    1.0141747    1.0140301 
 1610000    253.47546    165.75995    15104.465    1.0140391    1.0138945 
 1615000    251.34568    181.82234    15361.692    0.9970593   0.99691714 
 1620000    248.74912    246.95583    15341.435   0.99837584    0.9982335 
 1625000    247.89106    317.18883    15158.686     1.010412    1.0102679 
 1630000    256.78322     556.7173    15096.318    1.0145863    1.0144417 
 1635000    259.58615   -249.12709    15438.255   0.99211459   0.99197315 
 1640000    256.20219    632.45051    15238.251    1.0051362    1.0049929 
 1645000    262.74574    364.62445    15117.265    1.0131805     1.013036 
 1650000    247.74755    112.52488    15409.671   0.99395485   0.99381314 
 1655000    259.77568   -466.11521    15419.567   0.99331701   0.99317539 
 1660000    249.16428   -281.46477    15481.357   0.98935243   0.98921138 
 1665000    243.67313    422.72953    15374.047     0.996258   0.99611596 
 1670000    242.22788    218.26448    15256.665    1.0039231    1.0037799 
 1675000    242.16613    279.55351    15287.993    1.0018659     1.001723 
 1680000    251.94574    232.49992    15235.459    1.0053204    1.0051771 
 1685000    251.75517    107.22672    15314.472    1.0001336   0.99999101 
 1690000    250.97281    446.15525    15410.631   0.99389293   0.99375123 
 1695000    252.18663   -1040.4187     15549.68   0.98500531   0.98486487 
 1700000    248.31765   -629.56942    15806.565   0.96899724   0.96885909 
 1705000    260.86402   -80.712529    15627.593   0.98009446   0.97995473 
 1710000    253.55569    1049.1018    15710.267    0.9749368    0.9747978 
 1715000    254.34681    323.12877    15628.494     0.980038   0.97989827 
 1720000    252.66376    72.212218    15533.976    0.9860011   0.98586052 
 1725000    254.93853   -22.988135    15642.537   0.97915818   0.97901858 
 1730000     251.1044    805.51183    15417.108   0.99347538   0.99333374 
 1735000    241.36635    1330.3322    15308.336    1.0005345    1.0003918 
 1740000    250.59152     37.74158    15398.111   0.99470106   0.99455924 
 1745000    248.05638   -301.44241    15449.597   0.99138624    0.9912449 
 1750000    253.60129   -634.32019     15427.94   0.99277791   0.99263637 
 1755000    253.38335    321.03428    15463.939   0.99046676   0.99032554 
 1760000    253.34298   -105.74582    15267.667    1.0031996    1.0030566 
 1765000    245.26723    95.041471    15367.229   0.99670007   0.99655797 
 1770000    242.12755   -598.03468    15763.544   0.97164174   0.97150321 
 1775000    257.53498    370.24045    15504.778   0.98785792   0.98771708 
 1780000     247.4303     395.8961    15475.382   0.98973439   0.98959328 
 1785000    247.74507   -754.31124    15633.609   0.97971735   0.97957767 
 1790000    236.87726   -148.90969    15695.422    0.9758589   0.97571977 
 1795000    248.01395   -195.13666    15620.385   0.98054676   0.98040696 
 1800000     250.4892    500.36835    15232.426    1.0055206    1.0053772 
 1805000    247.13849   -844.37783    15403.506   0.99435271   0.99421094 
 1810000    257.66953    58.287092    15570.692    0.9836761   0.98353586 
 1815000    255.37967   -712.26932    15659.286   0.97811084   0.97797139 
 1820000    255.17981   -556.20812    15537.341   0.98578755   0.98564701 
 1825000    256.58291    55.601702     15415.54   0.99357646    0.9934348 
 1830000    246.02104    547.08647    15269.207    1.0030984    1.0029554 
 1835000    250.94447    -277.2044    15495.669   0.98843861   0.98829768 
 1840000    249.58244   -339.27018    15489.526   0.98883063   0.98868965 
 1845000    251.33711    443.36493    15632.619   0.97977939    0.9796397 
 1850000    247.35915   -309.33409    15498.223   0.98827576   0.98813486 
 1855000     251.4365    637.01502    15273.414    1.0028222    1.0026792 
 1860000    246.15289    -3.874158    15426.561   0.99286663   0.99272508 
 1865000    241.71768     -281.953    15392.043   0.99509323   0.99495135 
 1870000    249.90656   -85.390188    15311.761    1.0003107    1.0001681 
 1875000    254.31811   -262.82002    15357.845   0.99730901   0.99716683 
 1880000    243.04722   -659.99679    15281.989    1.0022595    1.0021166 
 1885000    251.35574     65.24071    15226.646    1.0059023    1.0057589 
 1890000    258.61585    834.72691    15306.582    1.0006491    1.0005064 
 1895000    251.37947   -338.10369    15603.161   0.98162915    0.9814892 
 1900000    254.38926   -110.24317    15473.985   0.98982377   0.98968264 
 1905000    244.20168   -46.159125    15390.335   0.99520364   0.99506175 
 1910000    246.63007   -63.452102    15487.113   0.98898468   0.98884368 
 1915000    242.14841   -498.14862    15356.593   0.99739035   0.99724815 
 1920000    243.84362    510.19976    15184.096    1.0087211    1.0085773 
 1925000    243.71966    226.00635    15369.263   0.99656815   0.99642607 
 1930000    250.90911    228.27747     15454.22   0.99108966   0.99094835 
 1935000    250.96984    -783.6694    15570.612   0.98368117   0.98354093 
 1940000    235.99629   -620.78854    15453.301    0.9911486   0.99100729 
 1945000    256.15919    1058.4313    15421.239   0.99320926   0.99306766 
 1950000    263.07648    594.55338    15445.595   0.99164309   0.99150171 
 1955000    244.90816    168.49182    15552.533   0.98482466   0.98468425 
 1960000    254.02518    85.896421    15506.414   0.98775369   0.98761287 
 1965000    248.49582   -262.64023    15515.294   0.98718833   0.98704759 
 1970000    245.66683    -179.2726    15532.189   0.98611456   0.98597396 
 1975000    245.84999   -53.180224    15632.913   0.97976093   0.97962125 
 1980000    242.26979   -171.01129    15507.791   0.98766601   0.98752519 
 1985000    250.50217   -129.22263    15403.862   0.99432972   0.99418795 
 1990000    254.77987   -27.233134     15545.48   0.98527145   0.98513098 
 1995000    252.05511    371.76369    15403.735   0.99433794   0.99419618 
 2000000    252.81314     796.0917    15126.169    1.0125841    1.0124397 
Loop time of 90946.5 on 1 procs for 2000000 steps with 1536 atoms

Performance: 1.900 ns/day, 12.631 hours/ns, 21.991 timesteps/s
100.0% CPU use with 1 MPI tasks x no OpenMP threads

MPI task timing breakdown:
Section |  min time  |  avg time  |  max time  |%varavg| %total
---------------------------------------------------------------
Pair    | 75880      | 75880      | 75880      |   0.0 | 83.43
Bond    | 2.3919     | 2.3919     | 2.3919     |   0.0 |  0.00
Kspace  | 7665.1     | 7665.1     | 7665.1     |   0.0 |  8.43
Neigh   | 1715       | 1715       | 1715       |   0.0 |  1.89
Comm    | 202.09     | 202.09     | 202.09     |   0.0 |  0.22
Output  | 2.8158     | 2.8158     | 2.8158     |   0.0 |  0.00
Modify  | 5426.7     | 5426.7     | 5426.7     |   0.0 |  5.97
Other   |            | 52.08      |            |       |  0.06

Nlocal:        1536.00 ave        1536 max        1536 min
Histogram: 1 0 0 0 0 0 0 0 0 0
Nghost:        13924.0 ave       13924 max       13924 min
Histogram: 1 0 0 0 0 0 0 0 0 0
Neighs:       956022.0 ave      956022 max      956022 min
Histogram: 1 0 0 0 0 0 0 0 0 0

Total # of neighbors = 956022
Ave neighs/atom = 622.41016
Ave special neighs/atom = 2.0000000
Neighbor list builds = 69091
Dangerous builds = 0
Total wall time: 25:15:46
